<number of tasks>
50

<cycle time>
1000

<order strength>
0.198


<task times>
1 27
2 177
3 243
4 172
5 131
6 26
7 86
8 190
9 41
10 102
11 92
12 91
13 235
14 35
15 233
16 160
17 112
18 123
19 121
20 49
21 288
22 324
23 99
24 78
25 120
26 21
27 26
28 59
29 43
30 136
31 57
32 155
33 93
34 44
35 204
36 159
37 136
38 106
39 157
40 26
41 182
42 84
43 63
44 181
45 45
46 41
47 136
48 159
49 150
50 112

<precedence relations>
1,11
1,14
2,23
3,10
4,8
5,9
6,7
6,12
6,13
7,15
7,18
7,21
7,23
8,24
9,19
9,20
11,17
11,22
12,23
14,16
17,28
17,38
18,24
18,26
19,27
19,29
23,25
23,41
24,31
24,32
26,32
29,30
29,44
30,34
31,33
31,35
31,36
32,33
32,37
33,41
33,45
34,38
34,45
36,40
36,44
37,39
37,42
37,43
38,46
39,49
40,50
41,47
42,47
42,48

<end>
